c A SAT instance generated from a 3-CNF formula that had 39 clauses and 13 variables
p cnf 13 39
6 7 1 0
-10 -7 5 0
-3 -4 12 0
-5 11 -10 0
3 1 -6 0
-10 -13 -1 0
11 -4 -2 0
-5 -12 -8 0
5 -3 -11 0
13 -11 8 0
-10 -4 -7 0
10 4 -11 0
-4 -5 8 0
-12 -4 2 0
2 -11 -1 0
-5 3 -6 0
6 2 4 0
1 -11 -12 0
-13 9 7 0
-3 6 -1 0
6 -8 4 0
6 -2 -3 0
6 -8 -9 0
-3 -8 -5 0
6 -13 11 0
8 6 2 0
-7 -2 11 0
13 -5 11 0
7 3 -2 0
1 -5 -13 0
4 9 -10 0
-12 -4 -9 0
4 11 -13 0
-8 2 -6 0
-5 13 2 0
6 4 10 0
-2 12 -11 0
-8 -3 5 0
12 -6 5 0
